
******************************************************************************
This program contains Ipopt, a library for large-scale nonlinear optimization.
 Ipopt is released as open source code under the Eclipse Public License (EPL).
         For more information visit https://github.com/coin-or/Ipopt
******************************************************************************

This is Ipopt version 3.14.17, running with linear solver MUMPS 5.7.3.

Number of nonzeros in equality constraint Jacobian...:        0
Number of nonzeros in inequality constraint Jacobian.:       10
Number of nonzeros in Lagrangian Hessian.............:        0

Total number of variables............................:       10
                     variables with only lower bounds:        0
                variables with lower and upper bounds:       10
                     variables with only upper bounds:        0
Total number of equality constraints.................:        0
Total number of inequality constraints...............:        1
        inequality constraints with only lower bounds:        0
   inequality constraints with lower and upper bounds:        0
        inequality constraints with only upper bounds:        1

iter    objective    inf_pr   inf_du lg(mu)  ||d||  lg(rg) alpha_du alpha_pr  ls
   0  2.0461528e-05 0.00e+00 1.00e+00   0.0 0.00e+00    -  0.00e+00 0.00e+00   0
   1  2.0461529e-05 0.00e+00 9.99e-03  -6.1 1.61e-04    -  9.90e-01 1.00e+00f  1
   2  2.0494593e-05 0.00e+00 4.63e-01  -2.2 1.23e+02    -  1.00e+00 9.90e-02f  1
   3  2.0495024e-05 0.00e+00 2.30e-02  -2.2 2.89e-01    -  9.17e-01 1.00e+00f  1
   4  2.0494960e-05 0.00e+00 4.41e-04  -3.4 1.11e-01    -  1.00e+00 1.00e+00f  1
   5  2.0494948e-05 0.00e+00 1.86e-04  -5.0 2.40e-02    -  1.00e+00 1.00e+00f  1
   6  2.0494896e-05 0.00e+00 4.83e-04  -5.0 8.71e-02    -  1.00e+00 1.00e+00f  1
   7  2.0494850e-05 0.00e+00 4.46e-04  -5.0 7.97e-02    -  1.00e+00 1.00e+00f  1
   8  2.0494804e-05 0.00e+00 4.22e-04  -5.0 7.45e-02    -  1.00e+00 1.00e+00f  1
   9  2.0494761e-05 0.00e+00 4.00e-04  -5.0 6.98e-02    -  1.00e+00 1.00e+00f  1
iter    objective    inf_pr   inf_du lg(mu)  ||d||  lg(rg) alpha_du alpha_pr  ls
  10  2.0494719e-05 0.00e+00 3.81e-04  -5.0 6.55e-02    -  1.00e+00 1.00e+00f  1
  11  2.0494682e-05 0.00e+00 3.63e-04  -5.0 6.16e-02    -  1.00e+00 1.00e+00f  1
  12  2.0494644e-05 0.00e+00 3.46e-04  -5.0 5.81e-02    -  1.00e+00 1.00e+00f  1
  13  2.0494609e-05 0.00e+00 3.31e-04  -5.0 5.48e-02    -  1.00e+00 1.00e+00f  1
  14  2.0494573e-05 0.00e+00 3.17e-04  -5.0 5.18e-02    -  1.00e+00 1.00e+00f  1
  15  2.0494542e-05 0.00e+00 3.04e-04  -5.0 4.90e-02    -  1.00e+00 1.00e+00f  1
  16  2.0494511e-05 0.00e+00 2.92e-04  -5.0 4.64e-02    -  1.00e+00 1.00e+00f  1
  17  2.0494481e-05 0.00e+00 2.81e-04  -5.0 4.40e-02    -  1.00e+00 1.00e+00f  1
  18  2.0494450e-05 0.00e+00 2.70e-04  -5.0 4.18e-02    -  1.00e+00 1.00e+00f  1
  19  2.0494422e-05 0.00e+00 2.60e-04  -5.0 3.97e-02    -  1.00e+00 1.00e+00f  1
iter    objective    inf_pr   inf_du lg(mu)  ||d||  lg(rg) alpha_du alpha_pr  ls
  20  2.0494394e-05 0.00e+00 2.50e-04  -5.0 3.77e-02    -  1.00e+00 1.00e+00f  1
  21  2.0494367e-05 0.00e+00 2.41e-04  -5.0 3.59e-02    -  1.00e+00 1.00e+00f  1
  22  2.0494341e-05 0.00e+00 2.33e-04  -5.0 3.42e-02    -  1.00e+00 1.00e+00f  1
  23  2.0494316e-05 0.00e+00 2.25e-04  -5.0 3.26e-02    -  1.00e+00 1.00e+00f  1
  24  2.0494293e-05 0.00e+00 2.17e-04  -5.0 3.11e-02    -  1.00e+00 1.00e+00f  1
  25  2.0494269e-05 0.00e+00 2.10e-04  -5.0 2.96e-02    -  1.00e+00 1.00e+00f  1
  26  2.0494245e-05 0.00e+00 2.03e-04  -5.0 2.83e-02    -  1.00e+00 1.00e+00f  1
  27  2.0494221e-05 0.00e+00 1.96e-04  -5.0 2.70e-02    -  1.00e+00 1.00e+00f  1
  28  2.0494202e-05 0.00e+00 1.89e-04  -5.0 2.58e-02    -  1.00e+00 1.00e+00f  1
  29  2.0494180e-05 0.00e+00 1.83e-04  -5.0 2.47e-02    -  1.00e+00 1.00e+00f  1
iter    objective    inf_pr   inf_du lg(mu)  ||d||  lg(rg) alpha_du alpha_pr  ls
  30  2.0494160e-05 0.00e+00 1.77e-04  -5.0 2.36e-02    -  1.00e+00 1.00e+00f  1
  31  2.0494140e-05 0.00e+00 1.72e-04  -5.0 2.26e-02    -  1.00e+00 1.00e+00f  1
  32  2.0494121e-05 0.00e+00 1.66e-04  -5.0 2.16e-02    -  1.00e+00 1.00e+00h  1
  33  2.0494102e-05 0.00e+00 1.61e-04  -5.0 2.07e-02    -  1.00e+00 1.00e+00f  1
  34  2.0494085e-05 0.00e+00 1.56e-04  -5.0 1.98e-02    -  1.00e+00 1.00e+00f  1
  35  2.0494065e-05 0.00e+00 1.51e-04  -5.0 1.90e-02    -  1.00e+00 1.00e+00h  1
  36  2.0494050e-05 0.00e+00 1.46e-04  -5.0 1.82e-02    -  1.00e+00 1.00e+00h  1
  37  2.0494032e-05 0.00e+00 1.42e-04  -5.0 1.74e-02    -  1.00e+00 1.00e+00f  1
  38  2.0494014e-05 0.00e+00 1.38e-04  -5.0 1.67e-02    -  1.00e+00 1.00e+00h  1
  39  2.0493999e-05 0.00e+00 1.33e-04  -5.0 1.60e-02    -  1.00e+00 1.00e+00h  1
iter    objective    inf_pr   inf_du lg(mu)  ||d||  lg(rg) alpha_du alpha_pr  ls
  40  2.0493984e-05 0.00e+00 1.29e-04  -5.0 1.53e-02    -  1.00e+00 1.00e+00f  1
  41  2.0493970e-05 0.00e+00 1.25e-04  -5.0 1.47e-02    -  1.00e+00 1.00e+00h  1
  42  2.0493956e-05 0.00e+00 1.22e-04  -5.0 1.41e-02    -  1.00e+00 1.00e+00f  1
  43  2.0493942e-05 0.00e+00 1.18e-04  -5.0 1.35e-02    -  1.00e+00 1.00e+00f  1
  44  2.0493928e-05 0.00e+00 1.14e-04  -5.0 1.30e-02    -  1.00e+00 1.00e+00f  1
  45  2.0493915e-05 0.00e+00 1.11e-04  -5.0 1.25e-02    -  1.00e+00 1.00e+00f  1
  46  2.0493902e-05 0.00e+00 1.08e-04  -5.0 1.19e-02    -  1.00e+00 1.00e+00f  1
  47  2.0493890e-05 0.00e+00 1.04e-04  -5.0 1.15e-02    -  1.00e+00 1.00e+00f  1
  48  2.0493876e-05 0.00e+00 1.01e-04  -5.0 1.10e-02    -  1.00e+00 1.00e+00h  1
  49  2.0493865e-05 0.00e+00 9.83e-05  -5.0 1.06e-02    -  1.00e+00 1.00e+00h  1
iter    objective    inf_pr   inf_du lg(mu)  ||d||  lg(rg) alpha_du alpha_pr  ls
  50  2.0493853e-05 0.00e+00 9.54e-05  -5.0 1.01e-02    -  1.00e+00 1.00e+00h  1
  51  2.0493842e-05 0.00e+00 9.25e-05  -5.0 9.75e-03    -  1.00e+00 1.00e+00h  1
  52  2.0493842e-05 0.00e+00 3.01e-07  -7.5 6.05e-05    -  1.00e+00 1.00e+00h  1
  53  2.0493842e-05 0.00e+00 3.10e-07  -7.5 6.33e-05    -  1.00e+00 1.00e+00h  1
  54  2.0493842e-05 0.00e+00 3.10e-07  -7.5 6.32e-05    -  1.00e+00 1.00e+00h  1
  55  2.0493841e-05 0.00e+00 3.10e-07  -7.5 6.32e-05    -  1.00e+00 1.00e+00h  1
  56  2.0493841e-05 0.00e+00 3.10e-07  -7.5 6.32e-05    -  1.00e+00 1.00e+00h  1
  57  2.0493841e-05 0.00e+00 3.10e-07  -7.5 6.32e-05    -  1.00e+00 1.00e+00f  1
  58  2.0493841e-05 0.00e+00 3.10e-07  -7.5 6.32e-05    -  1.00e+00 1.00e+00h  1
  59  2.0493841e-05 0.00e+00 3.10e-07  -7.5 6.32e-05    -  1.00e+00 1.00e+00f  1
iter    objective    inf_pr   inf_du lg(mu)  ||d||  lg(rg) alpha_du alpha_pr  ls
  60  2.0493841e-05 0.00e+00 3.10e-07  -7.5 6.32e-05    -  1.00e+00 1.00e+00f  1
  61  2.0493841e-05 0.00e+00 3.10e-07  -7.5 6.32e-05    -  1.00e+00 1.00e+00f  1
  62  2.0493841e-05 0.00e+00 3.10e-07  -7.5 6.32e-05    -  1.00e+00 1.00e+00f  1
  63  2.0493841e-05 0.00e+00 3.10e-07  -7.5 6.32e-05    -  1.00e+00 1.00e+00f  1
  64  2.0493841e-05 0.00e+00 3.09e-07  -7.5 6.32e-05    -  1.00e+00 1.00e+00f  1
  65  2.0493841e-05 0.00e+00 3.09e-07  -7.5 6.32e-05    -  1.00e+00 1.00e+00h  1
  66  2.0493841e-05 0.00e+00 3.09e-07  -7.5 6.31e-05    -  1.00e+00 1.00e+00h  1

Number of Iterations....: 66

                                   (scaled)                 (unscaled)
Objective...............:   2.0493840822255471e-05    2.0493840822255471e-05
Dual infeasibility......:   3.0942291674197256e-07    3.0942291674197256e-07
Constraint violation....:   0.0000000000000000e+00    0.0000000000000000e+00
Variable bound violation:   0.0000000000000000e+00    0.0000000000000000e+00
Complementarity.........:   2.8455797324730887e-08    2.8455797324730887e-08
Overall NLP error.......:   3.0942291674197256e-07    3.0942291674197256e-07


Number of objective function evaluations             = 67
Number of objective gradient evaluations             = 67
Number of equality constraint evaluations            = 0
Number of inequality constraint evaluations          = 67
Number of equality constraint Jacobian evaluations   = 0
Number of inequality constraint Jacobian evaluations = 1
Number of Lagrangian Hessian evaluations             = 0
Total seconds in IPOPT                               = 2116.589

EXIT: Solved To Acceptable Level.
ALMOST_LOCALLY_SOLVED
2.049384082225547e-5
[14.778300140661091, 13.107878625569766, 13.107878625569766, 13.711913986556846, 13.10787916387226, 14.277852797591548, 14.778301352077895, 13.462741036119002, 13.108889525222601, 13.711918957666255]
